unknown
(model
; cardinality of BoundSet is 3
(declare-sort BoundSet 0)
; rep: @uc_BoundSet_0
; rep: @uc_BoundSet_1
; rep: @uc_BoundSet_2
; cardinality of UnboundSet is 1
(declare-sort UnboundSet 0)
(declare-fun groundTerm_4 () UnboundSet)
(define-fun IsYoung ((BOUND_VARIABLE_505 BoundSet)) Bool true)
(define-fun IsStoppedFromKicking ((BOUND_VARIABLE_505 BoundSet)) Bool true)
(define-fun IsHim ((BOUND_VARIABLE_505 BoundSet)) Bool true)
(define-fun IsBlockedDuringSparringMatch ((BOUND_VARIABLE_505 BoundSet)) Bool false)
(define-fun IsKicked ((BOUND_VARIABLE_505 BoundSet)) Bool false)
)
sat
(model
; cardinality of BoundSet is 1
(declare-sort BoundSet 0)
; rep: @uc_BoundSet_0
; cardinality of UnboundSet is 1
(declare-sort UnboundSet 0)
(declare-fun groundTerm_11 () UnboundSet)
(define-fun IsYoung ((BOUND_VARIABLE_588 BoundSet)) Bool true)
(define-fun IsStoppedFromKicking ((BOUND_VARIABLE_588 BoundSet)) Bool true)
(define-fun IsHim ((BOUND_VARIABLE_588 BoundSet)) Bool true)
(define-fun IsBlockedDuringSparringMatch ((BOUND_VARIABLE_588 BoundSet)) Bool true)
(define-fun IsKicked ((BOUND_VARIABLE_588 BoundSet)) Bool false)
)
